# Random Circle Problem
param d := 0.05; 
param n := 10; 
param radius := 2.00; 
param v0 := 
1 5.83
2 4.87
3 5.40
4 5.18
5 5.30
6 5.12
7 4.91
8 5.57
9 5.25
10 5.00
;
param cap := 
1 3.17162
2 4.14127
3 4.41250
4 4.78493
5 5.29257
6 6.14547
7 0.55267
8 1.37629
9 1.37565
10 2.23495
;
param x0 := 
1 2.00
2 1.62
3 0.62
4 -0.62
5 -1.62
6 -2.00
7 -1.62
8 -0.62
9 0.62
10 1.62
;
param y0 := 
1 -0.00
2 1.18
3 1.90
4 1.90
5 1.18
6 0.00
7 -1.18
8 -1.90
9 -1.90
10 -1.18
;
